0000000000000000
0000000000000000
0000000000000000
0011100000000000
0011100000000000
0011100000000000
0011111111111100
0011111111111100
0000000000111000
0000000001110000
0000000011100000
0000000111000000
0000001110000000
0000001110000000
0000001110000000
0000000000000000
